0 116 
1 116 
2 118 
3 116 
4 115 
5 115 
6 116 
7 114 
8 113 
9 112 
10 115 
11 110 
12 109 
13 108 
14 107 
15 109 
16 104 
17 103 
18 104 
19 101 
20 99 
21 94 
22 94 
23 94 
24 91 
25 85 
26 87 
27 84 
28 86 
29 81 
30 82 
31 83 
32 77 
33 74 
34 75 
35 73 
36 69 
37 70 
38 69 
39 65 
40 65 
41 67 
42 67 
43 68 
44 62 
45 61 
46 58 
47 52 
48 56 
49 54 
50 53 
51 53 
52 49 
53 51 
54 47 
55 47 
56 43 
57 42 
58 36 
59 40 
60 40 
61 41 
62 39 
63 38 
64 35 
65 33 
66 26 
67 24 
68 26 
69 25 
70 25 
71 20 
72 18 
73 13 
74 12 
75 9 
76 11 
77 7 
78 6 
79 6 
80 4 
81 3 
82 2 
83 0 
84 0 

